400
300 300
1 210 135
2 210 564
3 210 688
4 209 326
5 209 817
6 209 602
7 208 28
8 208 898
9 208 98
10 207 248
11 207 979
12 206 192
13 205 495
14 204 951
15 204 111
16 204 487
17 202 375
18 201 521
19 201 264
20 201 819
21 201 822
22 200 757
23 200 160
24 199 32
25 197 585
26 197 571
27 196 114
28 195 863
29 195 896
30 195 164
31 194 206
32 194 999
33 194 87
34 193 340
35 192 68
36 192 280
37 191 913
38 190 928
39 190 368
40 190 411
41 190 120
42 189 508
43 189 135
44 189 592
45 188 647
46 188 179
47 188 205
48 188 313
49 187 999
50 187 57
51 187 557
52 187 16
53 186 245
54 186 398
55 186 945
56 185 667
57 185 9
58 185 627
59 184 165
60 184 203
61 182 508
62 182 937
63 182 253
64 182 195
65 182 293
66 181 214
67 180 370
68 179 869
69 178 617
70 178 309
71 178 117
72 178 156
73 178 332
74 178 25
75 178 827
76 177 989
77 177 699
78 177 191
79 176 322
80 175 747
81 175 348
82 174 900
83 174 700
84 173 473
85 173 971
86 172 210
87 172 957
88 172 247
89 172 143
90 171 732
91 171 566
92 171 58
93 170 143
94 170 454
95 170 859
96 169 779
97 169 504
98 168 679
99 167 52
100 167 109
101 166 692
102 166 300
103 165 951
104 165 501
105 165 694
106 165 28
107 164 527
108 164 956
109 163 491
110 163 505
111 161 673
112 161 289
113 160 20
114 160 173
115 160 887
116 159 39
117 158 295
118 158 663
119 158 667
120 157 323
121 156 800
122 156 926
123 156 750
124 156 550
125 155 938
126 155 301
127 154 217
128 154 830
129 153 742
130 152 822
131 152 111
132 151 278
133 151 347
134 151 187
135 150 243
136 149 884
137 148 496
138 148 998
139 148 606
140 147 141
141 147 146
142 146 649
143 146 992
144 145 43
145 145 916
146 145 447
147 145 100
148 145 268
149 144 306
150 144 112
151 144 698
152 143 72
153 143 536
154 142 846
155 142 922
156 142 577
157 142 437
158 142 694
159 141 103
160 141 359
161 141 307
162 140 359
163 139 330
164 139 576
165 139 166
166 139 824
167 138 363
168 136 506
169 135 33
170 134 786
171 134 450
172 134 195
173 134 265
174 133 20
175 132 151
176 132 861
177 132 633
178 131 119
179 129 656
180 129 161
181 129 178
182 128 993
183 127 802
184 127 632
185 126 198
186 126 243
187 126 329
188 126 886
189 124 173
190 124 16
191 124 642
192 123 954
193 123 805
194 123 325
195 122 494
196 122 562
197 122 519
198 122 643
199 121 141
200 121 761
201 121 579
202 121 352
203 120 118
204 120 717
205 118 965
206 118 615
207 118 122
208 118 853
209 117 356
210 117 959
211 117 762
212 116 877
213 112 794
214 112 784
215 111 154
216 111 113
217 110 50
218 110 70
219 109 813
220 109 841
221 109 858
222 108 831
223 108 749
224 108 904
225 108 757
226 107 480
227 106 660
228 106 704
229 106 437
230 106 416
231 106 384
232 105 347
233 105 975
234 104 648
235 104 345
236 103 402
237 101 128
238 101 239
239 100 137
240 100 107
241 99 430
242 97 411
243 97 154
244 97 343
245 96 559
246 96 264
247 95 859
248 95 392
249 94 723
250 93 399
251 93 238
252 92 492
253 92 578
254 92 592
255 90 32
256 89 482
257 89 518
258 88 415
259 87 190
260 87 441
261 86 916
262 86 877
263 86 41
264 86 843
265 86 669
266 86 958
267 85 882
268 85 543
269 84 39
270 84 513
271 84 829
272 84 606
273 83 231
274 82 61
275 82 29
276 81 840
277 81 260
278 81 295
279 80 518
280 80 949
281 79 458
282 78 718
283 77 419
284 77 46
285 77 847
286 77 921
287 76 602
288 76 274
289 76 48
290 76 326
291 76 510
292 76 282
293 76 947
294 75 76
295 74 556
296 74 779
297 74 188
298 73 995
299 72 251
300 72 885
301 72 366
302 72 128
303 71 708
304 71 297
305 71 410
306 70 57
307 69 582
308 69 723
309 69 532
310 69 285
311 69 832
312 68 141
313 67 121
314 67 426
315 67 708
316 67 160
317 66 846
318 65 733
319 65 980
320 65 448
321 65 776
322 64 449
323 64 462
324 63 988
325 63 527
326 62 317
327 62 191
328 61 164
329 61 249
330 61 852
331 60 447
332 60 336
333 60 945
334 59 402
335 58 443
336 58 569
337 57 911
338 57 387
339 57 447
340 57 580
341 55 876
342 55 727
343 55 701
344 54 622
345 54 887
346 54 872
347 54 282
348 53 622
349 53 943
350 53 130
351 52 67
352 52 595
353 51 707
354 50 84
355 50 704
356 49 877
357 49 128
358 48 913
359 48 95
360 48 188
361 47 452
362 47 632
363 47 731
364 47 666
365 47 690
366 46 995
367 46 585
368 45 342
369 45 252
370 45 606
371 45 483
372 43 198
373 42 772
374 42 989
375 41 357
376 40 191
377 40 760
378 39 180
379 39 469
380 38 613
381 38 328
382 38 700
383 37 353
384 36 724
385 36 335
386 35 37
387 35 850
388 35 876
389 35 149
390 33 170
391 33 192
392 33 83
393 32 978
394 32 988
395 32 989
396 31 717
397 31 650
398 31 736
399 30 356
400 30 941
